/* Objective function */
min: 3x12+3x23+4x34+9x25+16x48+4x56+8x65+9x37+7x67+9x87+10x77+7x78+14x81+7x47+12x51;

/* Variable bounds */
x12 >= 1;
x23 >= 1;
x34 >= 1;
x25 >= 1;
x65 >= 1;
x56 >= 1;
x37 >= 1;
x47 >= 1;
x67 >= 1;
x77 >= 1;
x87 >= 1;
x48 >= 1;
x78 >= 1;
x81 >= 1;
x51 >= 1;
x12 = x23+x25;
x23 = x34+x37;
x34 = x47+x48;
x25+x65 = x56+x51;
x56 = x67+x65;
x67+x37+x87+x47+x77 = x77+x78;
x48+x78 = x81+x87;
int x12,x23,x34,x25,x65,x56,x37,x47,x67,x77,x87,x48,x81,x78,x51;